c Random generated cnf formula, satisfiable: true
p cnf 10 50
7 3 1 0
6 -9 -4 0
2 -6 -3 0
-4 3 9 0
2 -8 3 0
-4 5 1 0
-2 -1 9 0
8 -9 1 0
-1 10 -4 0
-2 6 -8 0
-5 7 6 0
-9 5 6 0
-8 -1 -2 0
-9 2 5 0
-1 2 7 0
3 -2 -9 0
3 -9 2 0
7 5 1 0
-5 -2 6 0
-1 2 9 0
-5 9 10 0
3 -5 -9 0
10 6 -5 0
-5 1 -6 0
8 3 -6 0
3 -6 7 0
-7 10 -3 0
4 1 6 0
-10 -7 -3 0
-2 -8 -7 0
9 8 -4 0
2 -6 10 0
-9 -8 -5 0
1 -8 9 0
6 -5 9 0
3 1 4 0
-1 -10 -8 0
9 1 3 0
-4 -6 -8 0
1 -8 -9 0
5 4 -2 0
6 10 -8 0
3 10 5 0
3 -8 -10 0
8 -9 -5 0
-1 6 -10 0
5 -6 2 0
4 1 3 0
9 -5 -7 0
-3 8 9 0
